zzx-op2                                 
   1.00000000000000     
    45.0000000000000000    0.0000000000000000    0.0000000000000000
     0.0000000000000000   20.0000000000000000    0.0000000000000000
     0.0000000000000000    0.0000000000000000   20.0000000000000000
   C    H    N    O    S 
    79    72     2     8     1
CART
2.093708731139823698e+00 1.759539716088261230e+01 1.630265412816395809e+01
2.235830789992995449e+00 1.602302474038270574e+01 1.802923600315730468e+01
2.534582389391921708e+00 1.863459865972890839e+01 1.549004400424153971e+01
3.888913100480529295e+00 1.910237723208226157e+01 1.522036901510578133e+01
4.116875641708908518e+00 4.188623864623064463e-01 1.475710670261914537e+01
5.002085879457066397e+00 1.824762003340472205e+01 1.540596041223819945e+01
5.399141431603972308e+00 8.781739958952279324e-01 1.447791531895427219e+01
5.759014689985942681e+00 1.190714566929823981e+01 1.893788520456359947e+01
6.288702895266236936e+00 1.871202409753768592e+01 1.516047876640870840e+01
6.449487612079831678e+00 1.426419231106914332e+01 1.823494474336232329e+01
6.490697087783331654e+00 2.501116578520168332e-02 1.467913766136991072e+01
6.640608246512329060e+00 1.276059564795362711e+01 1.802736046201233933e+01
7.109332578049336604e+00 1.663107349068308594e+01 1.754532522745050471e+01
7.306219381707641958e+00 1.512975550490255117e+01 1.730881311488464291e+01
7.559648247416614453e+00 1.675177981823176054e+01 1.427537162833435325e+01
7.617972245762665295e+00 1.795660107781601056e+01 1.526103002103331008e+01
7.915531221403401929e+00 2.262355984478290338e-01 1.445111183535654931e+01
7.996565839135989506e+00 1.758860676404590606e+01 1.673168619481926100e+01
8.567235639153011562e+00 1.468968841693300575e+01 1.319653640192457367e+01
8.597181185175436724e+00 1.903348653728766493e+01 1.478514869474603977e+01
8.626634951676621199e+00 1.346488470743421928e+00 1.400410958361162628e+01
8.817575485391092371e+00 1.589755823988850736e+01 1.410674442006523677e+01
9.815432751149852919e+00 1.385819306585780453e+01 1.287769993821722281e+01
9.984574031610261358e+00 1.898184794352411586e+01 1.471404126816978142e+01
1.001398851557411263e+01 1.276664628506436472e+00 1.389268181937352864e+01
1.043687198140648675e+01 1.313183006800209007e+01 1.407407555134038901e+01
1.069825281698433983e+01 1.037919842772900836e-01 1.425390152458978932e+01
1.161743807045385424e+01 1.224308471489082883e+01 1.368429866248260929e+01
9.495255455284379309e-01 1.543715111968037590e+01 1.748660066686779402e+01
6.751344424460974381e-01 1.746766970143485054e+01 1.635884286757486805e+01
0.000000000000000000e+00 1.840276147266759210e+01 1.558671226787356723e+01
4.357272268952318939e+01 1.853305549891234705e+01 1.529362501442030187e+01
4.315422124348172872e+01 1.863579804729335621e+01 1.396754097181650422e+01
4.293635932566870395e+01 1.861912852411173702e+01 1.769503356689892470e+01
4.257435862989029829e+01 1.856657288817203266e+01 1.632741222398080083e+01
4.197071427323453463e+01 1.865881076953949957e+01 1.868085815344850076e+01
4.180102629686839322e+01 1.869998297014143773e+01 1.363058829912892911e+01
4.117897400763064297e+01 1.860325084014547059e+01 1.597380809311015426e+01
4.079233194145970742e+01 1.865547167184189448e+01 1.459680856241985580e+01
4.061148790300538991e+01 1.864137196566434085e+01 1.834185646111279766e+01
4.018941241528950314e+01 1.861597673711732170e+01 1.701111032861663119e+01
3.937340232934953121e+01 1.867329328338374239e+01 1.423727415001920349e+01
3.893602963782002746e+01 1.870203702797329015e+01 1.290537577221210697e+01
3.876576758933713052e+01 1.862117685649619503e+01 1.665435088405428488e+01
3.838904183672538295e+01 1.865372321252481314e+01 1.527541585887972708e+01
3.775097618921898146e+01 1.859156839780956005e+01 1.762056987168309519e+01
3.758108132483135932e+01 1.871904220742650438e+01 1.257266868279391758e+01
3.699873355762319704e+01 1.866752818367358913e+01 1.492593844510639656e+01
1.209630629061763329e+01 1.832140985336885564e+01 1.242221697656172097e+01
1.247844468923167938e+01 1.769508631650504427e+00 1.585526446920946597e+01
1.265914785287716171e+01 1.719862131228384072e+01 1.182598212948796146e+01
1.271913609764851572e+01 1.892813329880969775e+01 1.352975764696859962e+01
1.290318157913027264e+01 1.085945902562956533e+00 1.469802494135486270e+01
1.323423779017162261e+01 2.809574455777722690e+00 1.637581675745875387e+01
1.386223936024645553e+01 1.664956843026825339e+01 1.230073508606470511e+01
1.393070744019629359e+01 1.838498075861982173e+01 1.400416616172113038e+01
1.410560153246351689e+01 1.484356804019453691e+00 1.408271468036885210e+01
1.449193349241886963e+01 1.727419411296742879e+01 1.339114810521249588e+01
1.452303567694573871e+01 1.545142634788595970e+01 1.170911260713817015e+01
1.444605445744443983e+01 3.197967648506153893e+00 1.577969721980310958e+01
1.486287069775096370e+01 2.517587141154660202e+00 1.462304615626010751e+01
1.519485147201271857e+01 4.326397369302194207e+00 1.640418832994503617e+01
3.660739171703725248e+01 1.870370838233467836e+01 1.356467767503243849e+01
3.639908352070006003e+01 1.860452864476135204e+01 1.727409261111453276e+01
3.601031449768043302e+01 1.864514219797470673e+01 1.594048958282041717e+01
3.518074439930708053e+01 1.872708297079594786e+01 1.318018567154817511e+01
3.457108316449291152e+01 1.866446113583914013e+01 1.560558434614256917e+01
3.293237758161619411e+01 1.314404782176712416e+00 1.399599920208628490e+01
3.293387522086275965e+01 2.185123848232830568e+00 1.272927197004096556e+01
3.283557190285926453e+01 1.874836378504434720e+01 1.388241512582626136e+01
3.283288632505659166e+01 1.617990625266496352e+01 1.379891277253273074e+01
3.281458353247838033e+01 1.541623717861765996e+01 1.246494184882515910e+01
3.235170316498268051e+01 2.073220296719730626e+00 1.520043201532564758e+01
3.221232331184974385e+01 1.534782589722757962e+01 1.493291662345009563e+01
3.220262820387777936e+01 0.000000000000000000e+00 1.376675689604122255e+01
3.215477947138568027e+01 1.753504796849295388e+01 1.367228760571231128e+01
3.084323486756511912e+01 1.155135538327201061e-02 1.342928203813235299e+01
3.079658459218106970e+01 1.760234697355711120e+01 1.333624140983022777e+01
3.014412666585364420e+01 1.882649120378111007e+01 1.321533155093247380e+01
2.025016957113418670e+00 1.669293097329276065e+01 1.888173283471016362e+01
2.926357589321341379e+00 1.523231559847250693e+01 1.835340831890439617e+01
3.267412531133999209e+00 1.093271097177998641e+00 1.462524180869914581e+01
4.690276415051901182e+00 1.211204262818996114e+01 1.876374820561294854e+01
4.827304570285491536e+00 1.722032207355783839e+01 1.572049724799407677e+01
5.383583968510755824e+00 1.451858858852504675e+01 1.808235861506144815e+01
5.543672617521515633e+00 1.896354732233197282e+00 1.410950786182144334e+01
5.921690780823798406e+00 1.083231684644845494e+01 1.876961493019497595e+01
5.965734426451884787e+00 1.211279571905461694e+01 0.000000000000000000e+00
6.047003569784639154e+00 1.689423552360425873e+01 1.741822539543816362e+01
6.432512882953183464e+00 1.251140704320676633e+01 1.697179451930722038e+01
6.672650288150688169e+00 1.451912769160340844e+01 1.928728717784053259e+01
6.722119371195383053e+00 1.610507818869925245e+01 1.458696775195289774e+01
7.075258965930938615e+00 1.486259700397407002e+01 1.626454775807357578e+01
7.325788462876520413e+00 1.682783089957512246e+01 1.861053089725771770e+01
7.268118522926570790e+00 1.715074019753471646e+01 1.328799397133213134e+01
7.701429778574645724e+00 1.250464850317431953e+01 1.819430188292099970e+01
7.804982091863625016e+00 1.403559763328170362e+01 1.365890962128108299e+01
8.045937236465935172e+00 1.854680207130343561e+01 1.727488437589818204e+01
8.122967806670157387e+00 1.504659329403195045e+01 1.225039524471750063e+01
8.107538960589941723e+00 2.269126926488524987e+00 1.373547992352767722e+01
8.371239332206169337e+00 1.487482136798890053e+01 1.745881066887258726e+01
9.029641279825710853e+00 1.719964412822823618e+01 1.672987111659716675e+01
9.181180590355452864e+00 1.555251812419812296e+01 1.508772642436373523e+01
9.558398575680786990e+00 1.311050808412879931e+01 1.210673078933914582e+01
9.627230564869297069e+00 1.650535314304030976e+01 1.366891374688029259e+01
9.657653668713081174e+00 1.252037223878072325e+01 1.456362063542723462e+01
1.053850456873416874e+01 1.809160351702954017e+01 1.501557694328207049e+01
1.057903453159956797e+01 1.451598699266453352e+01 1.241982557447734159e+01
1.058143294383325639e+01 2.136756614711240232e+00 1.353329160561116851e+01
1.076626492977688443e+01 1.386554260988620513e+01 1.482894281081998855e+01
1.117242755888531747e+01 1.874534585406123455e+01 1.202719245711157292e+01
1.131107925014067206e+01 1.146866833765371929e+01 1.296344444808019603e+01
1.154907569881588358e+01 1.473045417606314800e+00 1.634289982552753528e+01
1.160175475982910598e+00 1.477732455287974744e+01 1.662624203237020737e+01
4.179317256298418215e-01 1.486530599779387529e+01 1.825927039568942334e+01
4.399221216997465689e+01 1.864528402921199657e+01 1.796136658209466219e+01
4.390233572248950367e+01 1.862381765974453174e+01 1.317225861839714973e+01
4.226266668837347140e+01 1.871154439701901850e+01 1.973141888863414550e+01
4.154357827661916502e+01 1.876080699396492690e+01 1.257334379653230805e+01
3.987834095270165591e+01 1.866976825199797929e+01 1.914758482238826787e+01
3.966153412377535403e+01 1.870876677659017417e+01 1.209233134007054744e+01
3.800519907302179945e+01 1.855411120280177784e+01 1.867941872631601186e+01
3.725858120497182568e+01 1.874340123048753526e+01 1.153031501244391777e+01
1.216184560250712110e+01 1.678660566999167258e+01 1.094252553035533104e+01
1.204650969485680179e+01 1.173253679499530300e+01 1.455882926072592376e+01
1.242403023738675216e+01 1.282773706261334290e+01 1.321436740274485899e+01
1.281918204521518234e+01 1.493552612964300508e+01 1.094189856918413994e+01
1.290797057469244180e+01 3.340503423475686517e+00 1.727148709928063752e+01
1.442080940652488863e+01 1.883476787884449166e+01 1.486853670816807593e+01
1.443465246072668506e+01 9.909968807362954379e-01 1.316761051845823971e+01
1.542709680535705985e+01 1.684907968754265539e+01 1.375931363686341946e+01
1.576767107739743068e+01 2.817517128617360811e+00 1.408544067943506306e+01
1.678409244785277821e+01 3.762417662309369248e+00 1.544906337835096366e+01
3.562245929511730225e+01 1.858295088282515906e+01 1.804055267418369013e+01
3.398267686106516550e+01 1.084889241491206135e+00 1.423246736471550555e+01
3.388840071032142731e+01 1.635016056344382207e+01 1.406106055614157668e+01
3.351631834341949912e+01 3.104491485546949647e+00 1.289663907528701969e+01
3.337356539551505108e+01 1.645174929900543148e+00 1.187833231506808396e+01
3.335958547583877731e+01 1.446420539354994794e+01 1.256047368120122698e+01
3.328356987156196567e+01 1.600676764518386719e+01 1.166479371645244001e+01
3.292786704225426320e+01 2.992410085638331552e+00 1.538928874087194743e+01
3.275162229426330640e+01 1.439488143967109934e+01 1.504928390061446741e+01
3.237790199793003865e+01 1.453531716887685121e+00 1.610824558208145874e+01
3.225298947536021643e+01 1.588945429249583263e+01 1.588886703948009504e+01
3.191212949178415670e+01 2.484930437206953613e+00 1.244921057052559199e+01
3.178495009335480503e+01 1.518063369078494418e+01 1.215395971574293199e+01
3.130579329348163498e+01 2.366226777545120896e+00 1.501984038544420486e+01
3.115795515108852243e+01 1.511058978988585011e+01 1.472219573530432513e+01
3.032402954936330985e+01 9.677723533549134061e-01 1.333323573489696123e+01
3.024090059172230838e+01 1.667727325828978380e+01 1.316720584489285528e+01
2.908436483493747104e+01 1.885711827493997106e+01 1.295305409708504740e+01
1.212299890276121062e+01 4.310363135292227810e-02 1.415615735500824535e+01
3.424406567340449925e+01 1.870962586065050459e+01 1.423440613249197284e+01
2.931373579854845701e+00 1.676054449127525459e+01 1.700369405172759230e+01
4.686420289635151448e-02 1.648311102076179324e+01 1.707778102676729048e+01
1.375034506415886071e+01 1.464053976259122258e+01 1.091484422026814549e+01
1.470629142297919856e+01 5.088852789533932608e+00 1.721969536746605201e+01
1.569023671192422498e+01 1.516038053107845940e+01 1.189916043035522009e+01
1.650265143365547260e+01 4.495924290478754415e+00 1.602959459235129458e+01
3.480365978051719367e+01 1.876240303103454465e+01 1.200646623765165089e+01
3.368390640550760651e+01 1.864567796687248347e+01 1.646179200703071643e+01
1.154806985701590349e+00 1.942752058540690285e+01 1.479624886230384284e+01
2.904928627266352947e+01 1.050950106812003249e+01 1.073964171644714938e+01
2.904928627266352947e+01 1.050950106812003249e+01 1.073964171644714938e+01
2.904928627266352947e+01 1.050950106812003249e+01 1.073964171644714938e+01
2.904928627266352947e+01 1.050950106812003249e+01 1.073964171644714938e+01
2.904928627266352947e+01 1.050950106812003249e+01 1.073964171644714938e+01
2.904928627266352947e+01 1.050950106812003249e+01 1.073964171644714938e+01
2.904928627266352947e+01 1.050950106812003249e+01 1.073964171644714938e+01
2.904928627266352947e+01 1.050950106812003249e+01 1.073964171644714938e+01
2.904928627266352947e+01 1.050950106812003249e+01 1.073964171644714938e+01
2.904928627266352947e+01 1.050950106812003249e+01 1.073964171644714938e+01
2.904928627266352947e+01 1.050950106812003249e+01 1.073964171644714938e+01
2.904928627266352947e+01 1.050950106812003249e+01 1.073964171644714938e+01
2.904928627266352947e+01 1.050950106812003249e+01 1.073964171644714938e+01
2.904928627266352947e+01 1.050950106812003249e+01 1.073964171644714938e+01
2.904928627266352947e+01 1.050950106812003249e+01 1.073964171644714938e+01
2.904928627266352947e+01 1.050950106812003249e+01 1.073964171644714938e+01
2.904928627266352947e+01 1.050950106812003249e+01 1.073964171644714938e+01
2.904928627266352947e+01 1.050950106812003249e+01 1.073964171644714938e+01
2.904928627266352947e+01 1.050950106812003249e+01 1.073964171644714938e+01
2.904928627266352947e+01 1.050950106812003249e+01 1.073964171644714938e+01
2.904928627266352947e+01 1.050950106812003249e+01 1.073964171644714938e+01
2.904928627266352947e+01 1.050950106812003249e+01 1.073964171644714938e+01
2.904928627266352947e+01 1.050950106812003249e+01 1.073964171644714938e+01
2.904928627266352947e+01 1.050950106812003249e+01 1.073964171644714938e+01
2.904928627266352947e+01 1.050950106812003249e+01 1.073964171644714938e+01
2.904928627266352947e+01 1.050950106812003249e+01 1.073964171644714938e+01
2.904928627266352947e+01 1.050950106812003249e+01 1.073964171644714938e+01
2.904928627266352947e+01 1.050950106812003249e+01 1.073964171644714938e+01
2.904928627266352947e+01 1.050950106812003249e+01 1.073964171644714938e+01
2.904928627266352947e+01 1.050950106812003249e+01 1.073964171644714938e+01
2.904928627266352947e+01 1.050950106812003249e+01 1.073964171644714938e+01
2.904928627266352947e+01 1.050950106812003249e+01 1.073964171644714938e+01
2.904928627266352947e+01 1.050950106812003249e+01 1.073964171644714938e+01
2.904928627266352947e+01 1.050950106812003249e+01 1.073964171644714938e+01
2.904928627266352947e+01 1.050950106812003249e+01 1.073964171644714938e+01
2.904928627266352947e+01 1.050950106812003249e+01 1.073964171644714938e+01
2.904928627266352947e+01 1.050950106812003249e+01 1.073964171644714938e+01
2.904928627266352947e+01 1.050950106812003249e+01 1.073964171644714938e+01
2.904928627266352947e+01 1.050950106812003249e+01 1.073964171644714938e+01
2.904928627266352947e+01 1.050950106812003249e+01 1.073964171644714938e+01
2.904928627266352947e+01 1.050950106812003249e+01 1.073964171644714938e+01
2.904928627266352947e+01 1.050950106812003249e+01 1.073964171644714938e+01
2.904928627266352947e+01 1.050950106812003249e+01 1.073964171644714938e+01
2.904928627266352947e+01 1.050950106812003249e+01 1.073964171644714938e+01
2.904928627266352947e+01 1.050950106812003249e+01 1.073964171644714938e+01
2.904928627266352947e+01 1.050950106812003249e+01 1.073964171644714938e+01
2.904928627266352947e+01 1.050950106812003249e+01 1.073964171644714938e+01
2.904928627266352947e+01 1.050950106812003249e+01 1.073964171644714938e+01
2.904928627266352947e+01 1.050950106812003249e+01 1.073964171644714938e+01
2.904928627266352947e+01 1.050950106812003249e+01 1.073964171644714938e+01
2.904928627266352947e+01 1.050950106812003249e+01 1.073964171644714938e+01
2.904928627266352947e+01 1.050950106812003249e+01 1.073964171644714938e+01
2.904928627266352947e+01 1.050950106812003249e+01 1.073964171644714938e+01
2.904928627266352947e+01 1.050950106812003249e+01 1.073964171644714938e+01
2.904928627266352947e+01 1.050950106812003249e+01 1.073964171644714938e+01
2.904928627266352947e+01 1.050950106812003249e+01 1.073964171644714938e+01
2.904928627266352947e+01 1.050950106812003249e+01 1.073964171644714938e+01
2.904928627266352947e+01 1.050950106812003249e+01 1.073964171644714938e+01
2.904928627266352947e+01 1.050950106812003249e+01 1.073964171644714938e+01
2.904928627266352947e+01 1.050950106812003249e+01 1.073964171644714938e+01
2.904928627266352947e+01 1.050950106812003249e+01 1.073964171644714938e+01
2.904928627266352947e+01 1.050950106812003249e+01 1.073964171644714938e+01
2.904928627266352947e+01 1.050950106812003249e+01 1.073964171644714938e+01
2.904928627266352947e+01 1.050950106812003249e+01 1.073964171644714938e+01
2.904928627266352947e+01 1.050950106812003249e+01 1.073964171644714938e+01
2.904928627266352947e+01 1.050950106812003249e+01 1.073964171644714938e+01
2.904928627266352947e+01 1.050950106812003249e+01 1.073964171644714938e+01
2.904928627266352947e+01 1.050950106812003249e+01 1.073964171644714938e+01
2.904928627266352947e+01 1.050950106812003249e+01 1.073964171644714938e+01
2.904928627266352947e+01 1.050950106812003249e+01 1.073964171644714938e+01
2.904928627266352947e+01 1.050950106812003249e+01 1.073964171644714938e+01
2.904928627266352947e+01 1.050950106812003249e+01 1.073964171644714938e+01
2.904928627266352947e+01 1.050950106812003249e+01 1.073964171644714938e+01
2.904928627266352947e+01 1.050950106812003249e+01 1.073964171644714938e+01
2.904928627266352947e+01 1.050950106812003249e+01 1.073964171644714938e+01
2.904928627266352947e+01 1.050950106812003249e+01 1.073964171644714938e+01
2.904928627266352947e+01 1.050950106812003249e+01 1.073964171644714938e+01
2.904928627266352947e+01 1.050950106812003249e+01 1.073964171644714938e+01
2.904928627266352947e+01 1.050950106812003249e+01 1.073964171644714938e+01
2.904928627266352947e+01 1.050950106812003249e+01 1.073964171644714938e+01
2.904928627266352947e+01 1.050950106812003249e+01 1.073964171644714938e+01
2.904928627266352947e+01 1.050950106812003249e+01 1.073964171644714938e+01
2.904928627266352947e+01 1.050950106812003249e+01 1.073964171644714938e+01
2.904928627266352947e+01 1.050950106812003249e+01 1.073964171644714938e+01
2.904928627266352947e+01 1.050950106812003249e+01 1.073964171644714938e+01
2.904928627266352947e+01 1.050950106812003249e+01 1.073964171644714938e+01
2.904928627266352947e+01 1.050950106812003249e+01 1.073964171644714938e+01
2.904928627266352947e+01 1.050950106812003249e+01 1.073964171644714938e+01
2.904928627266352947e+01 1.050950106812003249e+01 1.073964171644714938e+01
2.904928627266352947e+01 1.050950106812003249e+01 1.073964171644714938e+01
2.904928627266352947e+01 1.050950106812003249e+01 1.073964171644714938e+01
2.904928627266352947e+01 1.050950106812003249e+01 1.073964171644714938e+01
2.904928627266352947e+01 1.050950106812003249e+01 1.073964171644714938e+01
2.904928627266352947e+01 1.050950106812003249e+01 1.073964171644714938e+01
2.904928627266352947e+01 1.050950106812003249e+01 1.073964171644714938e+01
2.904928627266352947e+01 1.050950106812003249e+01 1.073964171644714938e+01
2.904928627266352947e+01 1.050950106812003249e+01 1.073964171644714938e+01
2.904928627266352947e+01 1.050950106812003249e+01 1.073964171644714938e+01
2.904928627266352947e+01 1.050950106812003249e+01 1.073964171644714938e+01
2.904928627266352947e+01 1.050950106812003249e+01 1.073964171644714938e+01
2.904928627266352947e+01 1.050950106812003249e+01 1.073964171644714938e+01
2.904928627266352947e+01 1.050950106812003249e+01 1.073964171644714938e+01
2.904928627266352947e+01 1.050950106812003249e+01 1.073964171644714938e+01
2.904928627266352947e+01 1.050950106812003249e+01 1.073964171644714938e+01
2.904928627266352947e+01 1.050950106812003249e+01 1.073964171644714938e+01
2.904928627266352947e+01 1.050950106812003249e+01 1.073964171644714938e+01
2.904928627266352947e+01 1.050950106812003249e+01 1.073964171644714938e+01
2.904928627266352947e+01 1.050950106812003249e+01 1.073964171644714938e+01
2.904928627266352947e+01 1.050950106812003249e+01 1.073964171644714938e+01
2.904928627266352947e+01 1.050950106812003249e+01 1.073964171644714938e+01
2.904928627266352947e+01 1.050950106812003249e+01 1.073964171644714938e+01
2.904928627266352947e+01 1.050950106812003249e+01 1.073964171644714938e+01
2.904928627266352947e+01 1.050950106812003249e+01 1.073964171644714938e+01
2.904928627266352947e+01 1.050950106812003249e+01 1.073964171644714938e+01
2.904928627266352947e+01 1.050950106812003249e+01 1.073964171644714938e+01
2.904928627266352947e+01 1.050950106812003249e+01 1.073964171644714938e+01
2.904928627266352947e+01 1.050950106812003249e+01 1.073964171644714938e+01
2.904928627266352947e+01 1.050950106812003249e+01 1.073964171644714938e+01
2.904928627266352947e+01 1.050950106812003249e+01 1.073964171644714938e+01
2.904928627266352947e+01 1.050950106812003249e+01 1.073964171644714938e+01
2.904928627266352947e+01 1.050950106812003249e+01 1.073964171644714938e+01
2.904928627266352947e+01 1.050950106812003249e+01 1.073964171644714938e+01
2.904928627266352947e+01 1.050950106812003249e+01 1.073964171644714938e+01
2.904928627266352947e+01 1.050950106812003249e+01 1.073964171644714938e+01
2.904928627266352947e+01 1.050950106812003249e+01 1.073964171644714938e+01
2.904928627266352947e+01 1.050950106812003249e+01 1.073964171644714938e+01
2.904928627266352947e+01 1.050950106812003249e+01 1.073964171644714938e+01
2.904928627266352947e+01 1.050950106812003249e+01 1.073964171644714938e+01
2.904928627266352947e+01 1.050950106812003249e+01 1.073964171644714938e+01
2.904928627266352947e+01 1.050950106812003249e+01 1.073964171644714938e+01
2.904928627266352947e+01 1.050950106812003249e+01 1.073964171644714938e+01
2.904928627266352947e+01 1.050950106812003249e+01 1.073964171644714938e+01
2.904928627266352947e+01 1.050950106812003249e+01 1.073964171644714938e+01
2.904928627266352947e+01 1.050950106812003249e+01 1.073964171644714938e+01
2.904928627266352947e+01 1.050950106812003249e+01 1.073964171644714938e+01
2.904928627266352947e+01 1.050950106812003249e+01 1.073964171644714938e+01
2.904928627266352947e+01 1.050950106812003249e+01 1.073964171644714938e+01
2.904928627266352947e+01 1.050950106812003249e+01 1.073964171644714938e+01
2.904928627266352947e+01 1.050950106812003249e+01 1.073964171644714938e+01
2.904928627266352947e+01 1.050950106812003249e+01 1.073964171644714938e+01
2.904928627266352947e+01 1.050950106812003249e+01 1.073964171644714938e+01
2.904928627266352947e+01 1.050950106812003249e+01 1.073964171644714938e+01
2.904928627266352947e+01 1.050950106812003249e+01 1.073964171644714938e+01
2.904928627266352947e+01 1.050950106812003249e+01 1.073964171644714938e+01
2.904928627266352947e+01 1.050950106812003249e+01 1.073964171644714938e+01
2.904928627266352947e+01 1.050950106812003249e+01 1.073964171644714938e+01
2.904928627266352947e+01 1.050950106812003249e+01 1.073964171644714938e+01
2.904928627266352947e+01 1.050950106812003249e+01 1.073964171644714938e+01
2.904928627266352947e+01 1.050950106812003249e+01 1.073964171644714938e+01
2.904928627266352947e+01 1.050950106812003249e+01 1.073964171644714938e+01
2.904928627266352947e+01 1.050950106812003249e+01 1.073964171644714938e+01
2.904928627266352947e+01 1.050950106812003249e+01 1.073964171644714938e+01
2.904928627266352947e+01 1.050950106812003249e+01 1.073964171644714938e+01
2.904928627266352947e+01 1.050950106812003249e+01 1.073964171644714938e+01
2.904928627266352947e+01 1.050950106812003249e+01 1.073964171644714938e+01
2.904928627266352947e+01 1.050950106812003249e+01 1.073964171644714938e+01
2.904928627266352947e+01 1.050950106812003249e+01 1.073964171644714938e+01
2.904928627266352947e+01 1.050950106812003249e+01 1.073964171644714938e+01
2.904928627266352947e+01 1.050950106812003249e+01 1.073964171644714938e+01
2.904928627266352947e+01 1.050950106812003249e+01 1.073964171644714938e+01
2.904928627266352947e+01 1.050950106812003249e+01 1.073964171644714938e+01
2.904928627266352947e+01 1.050950106812003249e+01 1.073964171644714938e+01
