zzx-op2                                 
   1.00000000000000     
    45.0000000000000000    0.0000000000000000    0.0000000000000000
     0.0000000000000000   20.0000000000000000    0.0000000000000000
     0.0000000000000000    0.0000000000000000   20.0000000000000000
   C    H    N    O    S 
    79    72     2     8     1
Direct
  0.4009871657439177  0.3542948046381290  0.2781506205858404
  0.4041454337184326  0.2756761836131336  0.3644797143355078
  0.4107843581495198  0.4062548795804437  0.2375201143897195
  0.4408805961737111  0.4296438081981115  0.2240363649329316
  0.4459464304232307  0.4954680659171137  0.2008732493085998
  0.4656177690398564  0.3869059482642346  0.2333159347895525
  0.4744412257542321  0.5184336463887598  0.1869136801253561
  0.4824384092738314  0.0698822300589104  0.4099121744058226
  0.4942092582800602  0.4101261514708827  0.2210418524980780
  0.4977822519870289  0.1877345621474555  0.3747651513457587
  0.4986980181137734  0.4757755048832585  0.1969747972461381
  0.5020293771966400  0.1125547289916797  0.3643859372782596
  0.5124454734530179  0.3060786211281527  0.3402841755501678
  0.5168207357565359  0.2310127218391260  0.3284585699218747
  0.5224524883278463  0.3121139375055864  0.1767864955943602
  0.5237485771799808  0.3723550004847989  0.2260694152293080
  0.5303609988608861  0.4858367265163898  0.1855735059454700
  0.5321617681438324  0.3539552847962937  0.2996022239186055
  0.5448433192553218  0.2090093674406486  0.1228447342738712
  0.5455087758335979  0.4261992734583815  0.2022753489149445
  0.5461633039780687  0.5418493701311695  0.1632233933582238
  0.5504064269495014  0.2694028585884238  0.1683551351809044
  0.5725810328552516  0.1674345998868886  0.1069029110885037
  0.5763397279765941  0.4236173437702042  0.1987199775861316
  0.5769933831757907  0.5383581780193202  0.1576520051463190
  0.5863907935276212  0.1311164499941029  0.1667216917446620
  0.5921992565404625  0.4797145458078629  0.1757129904071320
  0.6126255955064517  0.0866791823385398  0.1472328473017730
  0.3755608727303313  0.2463825025780172  0.3373479475210323
  0.3694632926618348  0.3479084316657409  0.2809600575563859
  0.3544603050519216  0.3946630202273779  0.2423535275713209
  0.3227430314857702  0.4011777215396157  0.2276991648986576
  0.3134429993515155  0.4063148489586662  0.1613949627684678
  0.3086016234001150  0.4054813727995853  0.3477695925225888
  0.3005571634939282  0.4028535910025999  0.2793885253766825
  0.2871428444571335  0.4074654850709734  0.3970608218500675
  0.2833720005378858  0.4095240951010703  0.1445473291340890
  0.2695486163326025  0.4046874886012718  0.2617083188331502
  0.2609565704176928  0.4072985301860932  0.1928583422986353
  0.2569378140075969  0.4065935448772155  0.3801107372332824
  0.2475583587250216  0.4053237834498644  0.3135734306084742
  0.2294248012596890  0.4081896107631854  0.1748816216786027
  0.2197054081145888  0.4096267979926629  0.1082867027882479
  0.2159218070371912  0.4055837894188081  0.2957354583803568
  0.2075501236458189  0.4072111072202390  0.2267887071216289
  0.1933708870345656  0.4041033664844764  0.3440464077617972
  0.1895954456037296  0.4104770569653236  0.0916513483173384
  0.1766543841102148  0.4079013557776779  0.2093148364329623
  0.6232671115100912  0.3905954392624411  0.0841287630057286
  0.6317590759237367  0.5630003781765236  0.2557811376381159
  0.6357747017825252  0.3344560122081904  0.0543170206520406
  0.6371077738885552  0.4209316115344834  0.1395057965260725
  0.6411976734770387  0.5288222417221462  0.1979191612453857
  0.6485544781668465  0.6150036693828845  0.2818087520505802
  0.6625100686129539  0.3070033681074110  0.0780546684808778
  0.6640315815007281  0.3937739845249894  0.1632262222636991
  0.6679181168844441  0.5487427867949710  0.1671536481960851
  0.6765032715501187  0.3382346522423699  0.1325753194382673
  0.6771944312062713  0.2470962639882964  0.0484735445345510
  0.6754837374395758  0.6344233290193061  0.2520027751677980
  0.6847463205574985  0.6004043036517314  0.1941702219906479
  0.6921236710966486  0.6908448150591081  0.2832273306748944
  0.1679578987638605  0.4097103657107323  0.1412517979292644
  0.1633288277341452  0.4047513788320660  0.3267225447333691
  0.1546895161114867  0.4067820564927338  0.2600423933186634
  0.1362546250365234  0.4108790951337959  0.1220271977550513
  0.1227065975962085  0.4077480033859554  0.2432971314847710
  0.0862909179767259  0.5402451857028340  0.1628178742819568
  0.0863241988488717  0.5837811390056399  0.0994815126796908
  0.0841396806710164  0.4119431358462156  0.1571386704689556
  0.0840800011642902  0.2835202592272466  0.1529635528042791
  0.0836732724403300  0.2453368055248814  0.0862650066189005
  0.0733870420515367  0.5781859614299849  0.2230395149439249
  0.0702897119819159  0.2419162414553773  0.2096637453501473
  0.0700742651380944  0.4745249465939984  0.1513557589797037
  0.0690109599716034  0.3512773450186461  0.1466322944632581
  0.0398655243311464  0.4751025143631620  0.1344820160842602
  0.0388288515448342  0.3546422952718539  0.1298299846691539
  0.0243297865153359  0.4158495067830540  0.1237844917242662
  0.3994606818766642  0.3091714952586364  0.4071045559131507
  0.4194904737035069  0.2361407265176237  0.3806883301228623
  0.4270694724104549  0.5291885014528983  0.1942800046125998
  0.4586886698308527  0.0801270780034964  0.4012053244582899
  0.4617337399471547  0.3355410502718903  0.2490427765773464
  0.4740955043521606  0.2004543760202507  0.3671358449307149
  0.4776530298857330  0.5693426832056583  0.1684933072687147
  0.4860534335146726  0.0161407889164211  0.4014986606873914
  0.4870321811952968  0.0801647325467292  0.4630179141776425
  0.4888381621582469  0.3192367227742112  0.3339291839495508
  0.4974050357842145  0.1000952987543367  0.3116076401430035
  0.5027414225663813  0.2004813311741688  0.4273822730696691
  0.5038407355229301  0.2797788560289611  0.1923663017752874
  0.5116882820726091  0.2176547967927019  0.2762453020813213
  0.5172556042269554  0.3159164915727545  0.3935444590405285
  0.5159740500058454  0.3320619564707343  0.1274176127442491
  0.5256031890202471  0.0997573717527144  0.3727330083236925
  0.5279043515377799  0.1763048282580836  0.1459633952416967
  0.5332589103067201  0.4018650501591701  0.3267621329725517
  0.5349707007557029  0.2268546112955959  0.0755376764135176
  0.5346278375094758  0.5879812929184246  0.1497919103540264
  0.5404878457676142  0.2182660149934434  0.3359584476212718
  0.5551190001591596  0.3345071530054103  0.2995114700075008
  0.5584865403931538  0.2521508528039045  0.2174042353958293
  0.5668691622892724  0.1300503508004384  0.0683544536445998
  0.5683987620490171  0.2997926037460139  0.1464636015216572
  0.5690748310233233  0.1005435585330346  0.1911989459490043
  0.5886492954682364  0.3791051224454753  0.2137967613417460
  0.5895499613096897  0.2003242962272251  0.0840091929015096
  0.5896032593593272  0.5813627773295604  0.1396824944582009
  0.5937106368247412  0.1678020770883087  0.2044650547186420
  0.6027364730271508  0.4117922392970602  0.0643775370332212
  0.6058176217217143  0.0479583634766843  0.1111901365816523
  0.6111064316922745  0.5481772174743141  0.2801629054540193
  0.3802419822959862  0.2133911742379858  0.2943300157961529
  0.3637476767325847  0.2177902464836922  0.3759814339621137
  0.3320650199402473  0.4067891480545982  0.3610862432823757
  0.3300677655516883  0.4057158295812251  0.1216308450975000
  0.2936306759046654  0.4101021664449492  0.4495888586093498
  0.2776509334212363  0.4125652962922448  0.0916851040042579
  0.2406456595564028  0.4080133591938973  0.4203971552970560
  0.2358277300247073  0.4099632854235070  0.0676344811811699
  0.1990202844524060  0.4022305067340873  0.3969888504934432
  0.1824287762735177  0.4116950081183752  0.0395336647998384
  0.6247235406631909  0.3138552300935819  0.0101441906954091
  0.6221605204931838  0.0611517863437635  0.1909593772139387
  0.6305498658827383  0.1159117997246655  0.1237362843148855
  0.6393310171678145  0.2213012530761486  0.0101128426368495
  0.6413040956006425  0.6415501177677827  0.3265922691416744
  0.6749227363080302  0.4162633405362230  0.2064447495860463
  0.6752303597347368  0.5240747906308132  0.1213984401005545
  0.6972846785043006  0.3169789309711311  0.1509835960208135
  0.7048529956607533  0.6154008030248664  0.1672899481493957
  0.7274401372264278  0.6626458297094668  0.2354710830951907
  0.1460705116100838  0.4036724907352564  0.3650455478868270
  0.1096309019644808  0.5287694086685587  0.1746412824134178
  0.1075358763923978  0.2920329747661894  0.1660709419847214
  0.0992673793501327  0.6297495208713458  0.1078498679419935
  0.0960950916189227  0.5567836930890255  0.0569345299310467
  0.0957844267372278  0.1977352162714958  0.0910415982377039
  0.0940951910866319  0.2748633288531917  0.0462576000002645
  0.0861906837686830  0.6241454508759150  0.2324823512212399
  0.0822741338133283  0.1942690185775533  0.2154821092083659
  0.0739692383392558  0.5472015324383827  0.2684301932817154
  0.0711934045043709  0.2689976612187900  0.2574612661516473
  0.0636187382026806  0.5987714684543460  0.0854784427039221
  0.0607925293486950  0.2335566311332456  0.0707158999647891
  0.0501446004626246  0.5928362854712544  0.2140099334498528
  0.0468593084094443  0.2300544360882909  0.1991277009428588
  0.0283276283711062  0.5229135642617441  0.1296797009224906
  0.0264803182013062  0.3083886095084876  0.1213782064222853
  0.0007795236060876  0.4173808603409968  0.1106706190318949
  0.6238602806688374  0.4766801281616445  0.1708257819280548
  0.1154395422386882  0.4100062396265235  0.1747382208022412
  0.4196019401598070  0.3125521711577611  0.3132026167640221
  0.3555017317829516  0.2986804976320880  0.3169069655160070
  0.6600235286998962  0.2065519347235595  0.0087601251910498
  0.6812667811181260  0.7289675860706950  0.3240026825509452
  0.7031322319835710  0.2325439731479213  0.0579759356954035
  0.7211858924664877  0.6993211611179361  0.2644976437952073
  0.1278749668411925  0.4126450981457256  0.0633412260602251
  0.1029915585076462  0.4068088449376224  0.2861075145291783
  0.3801226825119569  0.4459009758643436  0.2028303572928347
 
  0.00000000E+00  0.00000000E+00  0.00000000E+00
  0.00000000E+00  0.00000000E+00  0.00000000E+00
  0.00000000E+00  0.00000000E+00  0.00000000E+00
  0.00000000E+00  0.00000000E+00  0.00000000E+00
  0.00000000E+00  0.00000000E+00  0.00000000E+00
  0.00000000E+00  0.00000000E+00  0.00000000E+00
  0.00000000E+00  0.00000000E+00  0.00000000E+00
  0.00000000E+00  0.00000000E+00  0.00000000E+00
  0.00000000E+00  0.00000000E+00  0.00000000E+00
  0.00000000E+00  0.00000000E+00  0.00000000E+00
  0.00000000E+00  0.00000000E+00  0.00000000E+00
  0.00000000E+00  0.00000000E+00  0.00000000E+00
  0.00000000E+00  0.00000000E+00  0.00000000E+00
  0.00000000E+00  0.00000000E+00  0.00000000E+00
  0.00000000E+00  0.00000000E+00  0.00000000E+00
  0.00000000E+00  0.00000000E+00  0.00000000E+00
  0.00000000E+00  0.00000000E+00  0.00000000E+00
  0.00000000E+00  0.00000000E+00  0.00000000E+00
  0.00000000E+00  0.00000000E+00  0.00000000E+00
  0.00000000E+00  0.00000000E+00  0.00000000E+00
  0.00000000E+00  0.00000000E+00  0.00000000E+00
  0.00000000E+00  0.00000000E+00  0.00000000E+00
  0.00000000E+00  0.00000000E+00  0.00000000E+00
  0.00000000E+00  0.00000000E+00  0.00000000E+00
  0.00000000E+00  0.00000000E+00  0.00000000E+00
  0.00000000E+00  0.00000000E+00  0.00000000E+00
  0.00000000E+00  0.00000000E+00  0.00000000E+00
  0.00000000E+00  0.00000000E+00  0.00000000E+00
  0.00000000E+00  0.00000000E+00  0.00000000E+00
  0.00000000E+00  0.00000000E+00  0.00000000E+00
  0.00000000E+00  0.00000000E+00  0.00000000E+00
  0.00000000E+00  0.00000000E+00  0.00000000E+00
  0.00000000E+00  0.00000000E+00  0.00000000E+00
  0.00000000E+00  0.00000000E+00  0.00000000E+00
  0.00000000E+00  0.00000000E+00  0.00000000E+00
  0.00000000E+00  0.00000000E+00  0.00000000E+00
  0.00000000E+00  0.00000000E+00  0.00000000E+00
  0.00000000E+00  0.00000000E+00  0.00000000E+00
  0.00000000E+00  0.00000000E+00  0.00000000E+00
  0.00000000E+00  0.00000000E+00  0.00000000E+00
  0.00000000E+00  0.00000000E+00  0.00000000E+00
  0.00000000E+00  0.00000000E+00  0.00000000E+00
  0.00000000E+00  0.00000000E+00  0.00000000E+00
  0.00000000E+00  0.00000000E+00  0.00000000E+00
  0.00000000E+00  0.00000000E+00  0.00000000E+00
  0.00000000E+00  0.00000000E+00  0.00000000E+00
  0.00000000E+00  0.00000000E+00  0.00000000E+00
  0.00000000E+00  0.00000000E+00  0.00000000E+00
  0.00000000E+00  0.00000000E+00  0.00000000E+00
  0.00000000E+00  0.00000000E+00  0.00000000E+00
  0.00000000E+00  0.00000000E+00  0.00000000E+00
  0.00000000E+00  0.00000000E+00  0.00000000E+00
  0.00000000E+00  0.00000000E+00  0.00000000E+00
  0.00000000E+00  0.00000000E+00  0.00000000E+00
  0.00000000E+00  0.00000000E+00  0.00000000E+00
  0.00000000E+00  0.00000000E+00  0.00000000E+00
  0.00000000E+00  0.00000000E+00  0.00000000E+00
  0.00000000E+00  0.00000000E+00  0.00000000E+00
  0.00000000E+00  0.00000000E+00  0.00000000E+00
  0.00000000E+00  0.00000000E+00  0.00000000E+00
  0.00000000E+00  0.00000000E+00  0.00000000E+00
  0.00000000E+00  0.00000000E+00  0.00000000E+00
  0.00000000E+00  0.00000000E+00  0.00000000E+00
  0.00000000E+00  0.00000000E+00  0.00000000E+00
  0.00000000E+00  0.00000000E+00  0.00000000E+00
  0.00000000E+00  0.00000000E+00  0.00000000E+00
  0.00000000E+00  0.00000000E+00  0.00000000E+00
  0.00000000E+00  0.00000000E+00  0.00000000E+00
  0.00000000E+00  0.00000000E+00  0.00000000E+00
  0.00000000E+00  0.00000000E+00  0.00000000E+00
  0.00000000E+00  0.00000000E+00  0.00000000E+00
  0.00000000E+00  0.00000000E+00  0.00000000E+00
  0.00000000E+00  0.00000000E+00  0.00000000E+00
  0.00000000E+00  0.00000000E+00  0.00000000E+00
  0.00000000E+00  0.00000000E+00  0.00000000E+00
  0.00000000E+00  0.00000000E+00  0.00000000E+00
  0.00000000E+00  0.00000000E+00  0.00000000E+00
  0.00000000E+00  0.00000000E+00  0.00000000E+00
  0.00000000E+00  0.00000000E+00  0.00000000E+00
  0.00000000E+00  0.00000000E+00  0.00000000E+00
  0.00000000E+00  0.00000000E+00  0.00000000E+00
  0.00000000E+00  0.00000000E+00  0.00000000E+00
  0.00000000E+00  0.00000000E+00  0.00000000E+00
  0.00000000E+00  0.00000000E+00  0.00000000E+00
  0.00000000E+00  0.00000000E+00  0.00000000E+00
  0.00000000E+00  0.00000000E+00  0.00000000E+00
  0.00000000E+00  0.00000000E+00  0.00000000E+00
  0.00000000E+00  0.00000000E+00  0.00000000E+00
  0.00000000E+00  0.00000000E+00  0.00000000E+00
  0.00000000E+00  0.00000000E+00  0.00000000E+00
  0.00000000E+00  0.00000000E+00  0.00000000E+00
  0.00000000E+00  0.00000000E+00  0.00000000E+00
  0.00000000E+00  0.00000000E+00  0.00000000E+00
  0.00000000E+00  0.00000000E+00  0.00000000E+00
  0.00000000E+00  0.00000000E+00  0.00000000E+00
  0.00000000E+00  0.00000000E+00  0.00000000E+00
  0.00000000E+00  0.00000000E+00  0.00000000E+00
  0.00000000E+00  0.00000000E+00  0.00000000E+00
  0.00000000E+00  0.00000000E+00  0.00000000E+00
  0.00000000E+00  0.00000000E+00  0.00000000E+00
  0.00000000E+00  0.00000000E+00  0.00000000E+00
  0.00000000E+00  0.00000000E+00  0.00000000E+00
  0.00000000E+00  0.00000000E+00  0.00000000E+00
  0.00000000E+00  0.00000000E+00  0.00000000E+00
  0.00000000E+00  0.00000000E+00  0.00000000E+00
  0.00000000E+00  0.00000000E+00  0.00000000E+00
  0.00000000E+00  0.00000000E+00  0.00000000E+00
  0.00000000E+00  0.00000000E+00  0.00000000E+00
  0.00000000E+00  0.00000000E+00  0.00000000E+00
  0.00000000E+00  0.00000000E+00  0.00000000E+00
  0.00000000E+00  0.00000000E+00  0.00000000E+00
  0.00000000E+00  0.00000000E+00  0.00000000E+00
  0.00000000E+00  0.00000000E+00  0.00000000E+00
  0.00000000E+00  0.00000000E+00  0.00000000E+00
  0.00000000E+00  0.00000000E+00  0.00000000E+00
  0.00000000E+00  0.00000000E+00  0.00000000E+00
  0.00000000E+00  0.00000000E+00  0.00000000E+00
  0.00000000E+00  0.00000000E+00  0.00000000E+00
  0.00000000E+00  0.00000000E+00  0.00000000E+00
  0.00000000E+00  0.00000000E+00  0.00000000E+00
  0.00000000E+00  0.00000000E+00  0.00000000E+00
  0.00000000E+00  0.00000000E+00  0.00000000E+00
  0.00000000E+00  0.00000000E+00  0.00000000E+00
  0.00000000E+00  0.00000000E+00  0.00000000E+00
  0.00000000E+00  0.00000000E+00  0.00000000E+00
  0.00000000E+00  0.00000000E+00  0.00000000E+00
  0.00000000E+00  0.00000000E+00  0.00000000E+00
  0.00000000E+00  0.00000000E+00  0.00000000E+00
  0.00000000E+00  0.00000000E+00  0.00000000E+00
  0.00000000E+00  0.00000000E+00  0.00000000E+00
  0.00000000E+00  0.00000000E+00  0.00000000E+00
  0.00000000E+00  0.00000000E+00  0.00000000E+00
  0.00000000E+00  0.00000000E+00  0.00000000E+00
  0.00000000E+00  0.00000000E+00  0.00000000E+00
  0.00000000E+00  0.00000000E+00  0.00000000E+00
  0.00000000E+00  0.00000000E+00  0.00000000E+00
  0.00000000E+00  0.00000000E+00  0.00000000E+00
  0.00000000E+00  0.00000000E+00  0.00000000E+00
  0.00000000E+00  0.00000000E+00  0.00000000E+00
  0.00000000E+00  0.00000000E+00  0.00000000E+00
  0.00000000E+00  0.00000000E+00  0.00000000E+00
  0.00000000E+00  0.00000000E+00  0.00000000E+00
  0.00000000E+00  0.00000000E+00  0.00000000E+00
  0.00000000E+00  0.00000000E+00  0.00000000E+00
  0.00000000E+00  0.00000000E+00  0.00000000E+00
  0.00000000E+00  0.00000000E+00  0.00000000E+00
  0.00000000E+00  0.00000000E+00  0.00000000E+00
  0.00000000E+00  0.00000000E+00  0.00000000E+00
  0.00000000E+00  0.00000000E+00  0.00000000E+00
  0.00000000E+00  0.00000000E+00  0.00000000E+00
  0.00000000E+00  0.00000000E+00  0.00000000E+00
  0.00000000E+00  0.00000000E+00  0.00000000E+00
  0.00000000E+00  0.00000000E+00  0.00000000E+00
  0.00000000E+00  0.00000000E+00  0.00000000E+00
  0.00000000E+00  0.00000000E+00  0.00000000E+00
  0.00000000E+00  0.00000000E+00  0.00000000E+00
  0.00000000E+00  0.00000000E+00  0.00000000E+00
  0.00000000E+00  0.00000000E+00  0.00000000E+00
  0.00000000E+00  0.00000000E+00  0.00000000E+00
  0.00000000E+00  0.00000000E+00  0.00000000E+00
  0.00000000E+00  0.00000000E+00  0.00000000E+00
  0.00000000E+00  0.00000000E+00  0.00000000E+00
