NiO - supercell                         
   1.00000000000000     
    45.0000000000000000    0.0000000000000000    0.0000000000000000
     0.0000000000000000   20.0000000000000000    0.0000000000000000
     0.0000000000000000    0.0000000000000000   20.0000000000000000
   C    H    N    O    S 
    83    74     2     8     2
Direct
  0.4372859095923545  0.2563729532853145  0.2860559076566673
  0.4474566760530863  0.3967636840021882  0.1718600142269437
  0.4487414769398228  0.3025662680050445  0.2410552306649123
  0.4765056714022506  0.3713946670334636  0.1432419845619108
  0.4802826670134195  0.3034520750269607  0.2380015450167576
  0.4938571061327863  0.2580588317409749  0.2809712964714990
  0.5251924134472432  0.2441650679827490  0.2922781491421773
  0.5342250931523225  0.1845363069650716  0.3245138122601148
  0.5438994660565228  0.6734795203406136  0.3407812697060137
  0.5473395914647057  0.2901294364760929  0.2717446475303333
  0.5627114942472389  0.5554179609062615  0.3169431075239402
  0.5640460329511043  0.1703053387823630  0.3356965368140976
  0.5687639405279015  0.6224815245743542  0.3511153125954465
  0.5771214020064619  0.2767247477034473  0.2840691822513151
  0.5774100815306582  0.5638380342926439  0.0478275786704714
  0.5811599542782986  0.4369188893582958  0.2924212452372075
  0.5856590844138694  0.2163258022199059  0.3151846985173563
  0.5874363607369304  0.5038697805026331  0.3267629593769144
  0.6023283375909187  0.5390962933673435  0.0934501852030536
  0.6035262853605943  0.4628819829461435  0.0995121101476215
  0.6043980958090245  0.3254732556702038  0.1872317418427514
  0.6043864506660341  0.3185485278862430  0.2651327529049965
  0.6060386690187016  0.3860257356721135  0.3037081933880259
  0.6179606983775372  0.2141280625613859  0.3190194789876983
  0.6284261492342509  0.4379208804317614  0.1453135862523567
  0.6294841142596042  0.2735309199433260  0.2906211734101731
  0.6302522745957333  0.3614412517045480  0.1518634604033267
  0.6370816659292657  0.1658304112711164  0.3457835081507525
  0.6599565064536606  0.2850753401771584  0.2911767561020326
  0.4069039160994450  0.2421373841063073  0.3025569402097332
  0.3961782189381040  0.1954084411835026  0.3482935081852645
  0.3649729553061150  0.1934620654508592  0.3520591477170925
  0.3509902315997380  0.2388783989755510  0.3098824743819080
  0.3194927252665565  0.2546319940686814  0.3022213145002013
  0.3105846315883412  0.3213189571319575  0.2974790103313438
  0.3043056165357854  0.1349497551904122  0.2962673204436754
  0.2968833325526603  0.2036906790493234  0.2995807342100960
  0.2824326523170555  0.0865318442915068  0.2941113407889659
  0.2806902417004196  0.3392838111847993  0.2937894160366170
  0.2659952392969132  0.2226210576759655  0.2974484604979111
  0.2579012450425182  0.2918030216079188  0.2952022096715439
  0.2523958802201562  0.1047103669717231  0.2950440345175593
  0.2435887584802856  0.1716576576252180  0.2962597715523003
  0.2265437569237037  0.3110295238491787  0.2938914413324980
  0.2173386045815562  0.3780293516963624  0.2927121212442643
  0.6676325974165138  0.1771518656371569  0.3452041146020690
  0.6791577051007494  0.2366043768435802  0.3183085174161349
  0.7070606770447796  0.3405403534218934  0.3982966359651954
  0.7175021345974386  0.4011234588102823  0.4230108230948275
  0.7206077459370022  0.1579650362800464  0.2392554545715200
  0.7214371572150000  0.3091988684509275  0.3441856324018246
  0.7297255480744695  0.1988157734901037  0.2929006795085769
  0.7392926512003157  0.1087171905747653  0.2144232668609831
  0.7424420761148198  0.4326532655483248  0.3948963524979519
  0.7463459528722751  0.3409102702127527  0.3154648260197206
  0.7546498975450575  0.4979820018375634  0.4181301998284255
  0.7564755012628908  0.4014898347497464  0.3403765890636379
  0.7580521183434854  0.1881779686900629  0.3208884749064396
  0.7677874609518227  0.0985932014930953  0.2413244287347425
  0.7766942564510728  0.1390948699796226  0.2951244646352720
  0.7864114334395609  0.0446615538610118  0.2113493400634354
  0.2120982095770358  0.1907379842868693  0.2953746146644178
  0.2042613895739223  0.2599937659454454  0.2940262348327209
  0.1891758632467528  0.1432786321436907  0.2958992933038687
  0.1873734423673312  0.3958341674315449  0.2913587533877404
  0.1735075713110490  0.2786785029121575  0.2927461897628518
  0.1653439858833323  0.3470835542113164  0.2912886254314699
  0.1592813884283331  0.1617682459747627  0.2946306367212230
  0.1511599542423028  0.2287931052268704  0.2929302107799998
  0.1338098408838917  0.3675447418702475  0.2897502661982756
  0.1193190646576952  0.2467741548335454  0.2914050646165904
  0.0843375087925153  0.3957640857657978  0.1176655091715872
  0.0836526621277045  0.3314111704228750  0.1596588469055646
  0.0814327828984318  0.3344584974834959  0.2880402174242107
  0.0812651578917354  0.3358502576402742  0.4165339409647473
  0.0811875036187075  0.4015883076757234  0.4563511546868426
  0.0702240155020633  0.2727540172965632  0.1202221946648478
  0.0670960514574261  0.2785430801997251  0.4566392685946425
  0.0674695526743463  0.3421027986128777  0.2255476305279487
  0.0663228810806871  0.3442520322492371  0.3488559886284293
  0.0373977611887000  0.3601820921757408  0.2252105858733557
  0.0362774930169181  0.3622932205994900  0.3457340263739113
  0.0218884693671768  0.3702261803389035  0.2846110536788444
  0.4516132548802219  0.4361243531310421  0.2094207715728942
  0.4723321467415360  0.3318304285155591  0.1058940978424516
  0.4890774768701789  0.4121807936438842  0.1197317303803018
  0.5174232490721877  0.1481567925333636  0.3397588814080166
  0.5226414281821405  0.6548855589937332  0.3607923058453864
  0.5406143563185708  0.3357944285902832  0.2463303797877714
  0.5405524637901777  0.6841725603328541  0.2872755267569360
  0.5415428001422455  0.5347062338311588  0.3358680586025855
  0.5488399804506940  0.7211612336608724  0.3658511044912771
  0.5554919423138571  0.5477275684378284  0.0663896714809340
  0.5593120422304878  0.5638801366345092  0.2628321476416318
  0.5600137112571488  0.4167745247333485  0.3115739282256840
  0.5703470714615193  0.1233080624080145  0.3596440663431437
  0.5721408339619671  0.6140421432101775  0.4051440559663035
  0.5771177758632220  0.6187324308260074  0.0444016291077389
  0.5777981611612120  0.4457621716479991  0.2384925607799389
  0.5799282531925130  0.5440279589053674  0.9967543623341726
  0.5817609351125981  0.4447827800916855  0.1176314365014264
  0.5831901266683559  0.3488196411626774  0.1725647591824782
  0.5899120755845217  0.6431201668196493  0.3322098991300635
  0.5908762785386088  0.4954051153405175  0.3808236591506002
  0.5996236713170617  0.5610383711763305  0.1437684651683142
  0.6031814602264873  0.2739952570536062  0.1677305088797922
  0.6064066699170070  0.4407594665547379  0.0492619953891236
  0.6070985226411878  0.3741791379953980  0.3575685459604969
  0.6085946928736519  0.5245884055221879  0.3077873432252503
  0.6239121576053819  0.5575362594728830  0.0747870847320797
  0.6261367509228037  0.4615817541784537  0.1948384533430811
  0.6275727898388794  0.4095111713828601  0.2916027087336062
  0.6283194701218449  0.1199852437004623  0.3679540962472529
  0.6316465229801054  0.3407124467433675  0.1007765263170413
  0.6498299661863882  0.4560093767141282  0.1252757821490675
  0.6514594863908059  0.3476109786608959  0.1755524559595543
  0.4330223301612790  0.4166913795190510  0.1323140892795891
  0.4107697797635694  0.1639613046344124  0.3783829845113686
  0.3527822562845913  0.1614871711500214  0.3865870929539383
  0.3276260495356595  0.1205329797513670  0.2939555931997049
  0.3274337962093909  0.3605784274831194  0.2991323753268418
  0.2885173880876906  0.0337874313705910  0.2909830017078434
  0.2753639489503783  0.3923769585241885  0.2911757371549655
  0.2357703326758553  0.0651341822513061  0.2934387930933866
  0.2337685566157930  0.4180522961679500  0.2930017268504557
  0.6694943308063799  0.3312673469902379  0.2716414087346095
  0.6828465846872831  0.1402146658874486  0.3662173276650336
  0.6875999376126671  0.3170366688341133  0.4207215805324793
  0.6987047632900527  0.1654555637315696  0.2171460505736960
  0.7052664814472465  0.4238847451966024  0.4644707111788904
  0.7323228022797608  0.0771105926695554  0.1728124650195824
  0.7327968435442074  0.4874564103451320  0.5009554528406923
  0.7574639223204755  0.3179373628615565  0.2727989797332100
  0.7652307500915967  0.2180365148266290  0.3635514111718479
  0.7754194164473560  0.4267040890921479  0.3174790810352235
  0.7981137235573357  0.1315063270451802  0.3199109468337298
  0.8210248737616652  0.0829594499067170  0.2545191761101151
  0.1944034458863726  0.0901105990995887  0.2974563183297008
  0.1806146276407361  0.4482331993965118  0.2904114806332956
  0.1417303855441006  0.1241113862743859  0.2949612893898177
  0.1068583540134611  0.3181827839851863  0.1709785828893047
  0.1046572009572984  0.3222859720684568  0.4078589703889008
  0.0972285279899907  0.3878736550935784  0.0715384848469256
  0.0945053108146681  0.4371386923673697  0.1457210717339805
  0.0932021355270294  0.3952764253793077  0.5038968836428594
  0.0918848960899012  0.4420069167168137  0.4279028630553157
  0.0829619816394285  0.2638696778334122  0.0740602354468010
  0.0789619345240027  0.2712479735985767  0.5042341591119168
  0.0703814768712618  0.2265873767475668  0.1500665856065879
  0.0677937056715265  0.2313961630311567  0.4284110948047797
  0.0617836639497114  0.4112500021464740  0.1029736412895232
  0.0583845967971115  0.4175296571838487  0.4683662834900133
  0.0470747748137086  0.2831977532923347  0.1057626005600412
  0.0437019825033644  0.2894445022620218  0.4685435603901951
  0.0259499213259673  0.3664849458234869  0.1774643682859747
  0.0239545857302517  0.3702456126110647  0.3921116717466617
  0.9984493468595872  0.3843350187184740  0.2832586338421876
  0.7105219758397752  0.2482261373607244  0.3186679749928345
  0.1125894409416048  0.3156238694125690  0.2898102919930494
  0.4953816209380690  0.3453089164954051  0.1953710862703986
  0.4310629906990968  0.3429197538595830  0.2025730716856060
  0.7451884589447602  0.5210923959475267  0.4791308515485824
  0.7723266807201483  0.5311494262585299  0.3860877444888189
  0.7766806626824021  0.0021743605285991  0.1735631286017494
  0.8160034272390391  0.0438262962566185  0.2275718696481519
  0.1258684291241110  0.4265567344306262  0.2884091000835767
  0.0992723480842201  0.2047288654476915  0.2914384610491112
  0.4664921089581355  0.2147011836277599  0.3247293034194243
  0.3773632242411225  0.2835553798333095  0.2648879745881985
