NiO - supercell                         
   1.00000000000000     
    45.0000000000000000    0.0000000000000000    0.0000000000000000
     0.0000000000000000   20.0000000000000000    0.0000000000000000
     0.0000000000000000    0.0000000000000000   20.0000000000000000
   C    H    N    O    S 
    83    74     2     8     2
CART
1.136492894505760631e+01 5.127459065706290176e+00 2.255045313745156932e+01
9.118037645787509859e+00 7.935273680043763989e+00 2.316464806807776000e+01
1.032933765637108792e+01 6.051325360100889839e+00 2.249286970433773192e+01
8.020625207404410872e+00 7.427893340669271538e+00 2.225247102730828175e+01
9.638763081550155931e+00 6.069041500539213985e+00 2.125133788262515111e+01
1.013335370923453738e+01 5.161176634819497622e+00 2.032016799652186734e+01
9.703695879761887966e+00 4.883301359654979912e+00 1.895822724061703823e+01
1.009793863964402760e+01 3.690726139301431896e+00 1.830596488939841748e+01
1.019373228698846034e+01 1.346959040681227293e+01 1.777098595029296746e+01
8.889997764741046637e+00 5.802588729521858113e+00 1.825126000048724251e+01
9.388194730429395563e+00 1.110835921812522997e+01 1.722780591119618521e+01
9.696596073528048976e+00 3.406106775647260054e+00 1.700605928196734595e+01
9.877154109752227740e+00 1.244963049148708478e+01 1.667808363607720779e+01
8.509859663666450302e+00 5.534494954068946093e+00 1.694269625698231607e+01
4.280054820044144392e+00 1.127676068585287794e+01 1.904815531499810888e+01
8.577763400121256154e+00 8.738377787165916288e+00 1.670537912414183879e+01
8.894055057893218930e+00 4.326516044398117877e+00 1.632038573774163837e+01
9.065237811165992809e+00 1.007739561005266182e+01 1.614512791386498236e+01
4.593349391017024885e+00 1.078192586734687097e+01 1.763685188914448432e+01
4.677581609016680630e+00 9.257639658922871106e+00 1.753433485761556554e+01
6.228424183661669389e+00 6.509465113404075964e+00 1.671316500258395621e+01
7.621523867936665475e+00 6.370970557724859873e+00 1.601552573040250493e+01
8.277935974375505879e+00 7.720514713442270249e+00 1.560336449191527919e+01
8.311313132917831581e+00 4.282561251227718024e+00 1.498653137863403373e+01
4.994445203414255019e+00 8.758417608635229001e+00 1.612216841194744532e+01
7.571203086053788667e+00 5.470618398866520238e+00 1.477743671724206465e+01
5.074735779433561689e+00 7.228825034090959889e+00 1.599000714690545166e+01
8.404310140077782876e+00 3.316608225422327916e+00 1.397745261822581853e+01
6.966712494198949557e+00 5.701506803543168189e+00 1.354655811542242461e+01
1.227256794205684898e+01 4.842747682126145925e+00 2.362484262766199450e+01
1.330660031161663071e+01 3.908168823670052028e+00 2.364646882608561285e+01
1.400313118447538407e+01 3.869241309017183994e+00 2.486810622246413871e+01
1.353095311045718674e+01 4.777567979511020191e+00 2.580859418858576504e+01
1.402906615326526563e+01 5.092639881373628441e+00 2.714438941163664509e+01
1.412389074979520487e+01 6.426379142639150110e+00 2.754525871042258700e+01
1.422883155957208956e+01 2.698995103808243812e+00 2.780872106866019777e+01
1.443773300970979534e+01 4.073813580986468175e+00 2.807762537317358920e+01
1.463131420499283131e+01 1.730636885830135974e+00 2.870798788722088091e+01
1.466069098206223131e+01 6.785676223695985776e+00 2.878096972448427238e+01
1.502241438183795808e+01 4.452421153519309449e+00 2.933935703923244276e+01
1.514545330430260961e+01 5.836060432158376443e+00 2.968510692748091628e+01
1.525363153568704888e+01 2.094207339434462245e+00 2.990800440998476972e+01
1.545294958259984597e+01 3.433153152504360150e+00 3.025141880150796680e+01
1.575428769310101629e+01 6.220590476983574035e+00 3.095836038074273944e+01
1.591880789398052265e+01 7.560587033927248513e+00 3.133925072175457416e+01
7.777942636446830704e+00 3.543037312743138045e+00 1.275358545059922477e+01
7.064666803015530405e+00 4.732087536871603994e+00 1.253095624859985691e+01
7.932232675939388855e+00 6.810807068437868317e+00 1.069161256607429777e+01
8.163586318741646863e+00 8.022469176205644814e+00 1.005007879245277280e+01
4.815433178526641100e+00 3.159300725600928228e+00 1.157185916368005607e+01
6.674854077376163985e+00 6.183977369018549552e+00 1.059816318806230839e+01
5.590761124893406375e+00 3.976315469802074176e+00 1.072431115410589797e+01
3.994685731187809452e+00 2.174343811495305978e+00 1.104270119312796439e+01
7.158029620313155483e+00 8.653065310966495005e+00 9.298695739758819911e+00
5.659084139284791704e+00 6.818205404255054169e+00 9.853466790001768061e+00
7.327299139035357456e+00 9.959640036751268966e+00 8.599367436678782894e+00
5.900259548226950201e+00 8.029796694994928430e+00 9.222710504052358260e+00
5.520023544254019754e+00 3.763559373801257824e+00 9.333925631249215371e+00
3.901126950348027478e+00 1.971864029861906120e+00 9.655285257400841203e+00
4.683477499245059406e+00 2.781897399592451858e+00 8.814838679037656277e+00
2.989653383615243243e+00 8.932310772202360916e-01 9.174666567879548040e+00
1.607207682195296883e+01 3.814759685737385997e+00 3.152621116491037156e+01
1.620598413303558516e+01 5.199875318908907751e+00 3.185356872557342101e+01
1.654364847848247777e+01 2.865572642873813969e+00 3.244367182315730957e+01
1.649880670361851287e+01 7.916683348630898287e+00 3.255687286731258467e+01
1.680319586774827911e+01 5.573570058243149994e+00 3.310226130543811252e+01
1.694173964070644445e+01 6.941671084226328503e+00 3.344374304394503383e+01
1.712373662797740437e+01 3.235364919495253844e+00 3.365769108765866235e+01
1.725708814288937276e+01 4.575862104537407937e+00 3.399965348563586076e+01
1.755006670743339114e+01 7.350894837404950088e+00 3.472614292649031853e+01
1.787183644542006178e+01 4.935483096670908232e+00 3.529427524822922635e+01
1.547072883789962994e+01 7.915281715315956035e+00 3.825854020608380068e+01
1.623537569192398422e+01 6.628223408457500021e+00 3.790976935075170928e+01
1.857558614928007756e+01 6.689169949669917514e+00 3.684858866021900781e+01
2.087642522748780749e+01 6.717005152805484158e+00 3.570383924193732383e+01
2.158992011930783761e+01 8.031766153514467987e+00 3.535014240294943022e+01
1.580101698278568989e+01 5.455080345931263786e+00 3.880341225590197496e+01
2.187920193344278275e+01 5.570861603994502254e+00 3.591445748292519369e+01
1.773976784325030920e+01 6.842055972257553798e+00 3.797035290356034665e+01
1.996763375590491307e+01 6.885040644984742109e+00 3.691145889135364655e+01
1.834008844326701393e+01 7.203641843514816401e+00 3.918315697645363116e+01
2.051762783461456863e+01 7.245864411989799692e+00 3.814815772054137000e+01
1.971488354510866259e+01 7.404523606778069755e+00 3.927477780971245380e+01
9.705811082018280800e+00 8.722487062620841058e+00 2.266082983855141819e+01
7.436999567912726761e+00 6.636608570311182120e+00 2.275506335094770094e+01
7.346774186251298744e+00 8.243615872877684936e+00 2.195739567298432959e+01
1.070930029529380789e+01 2.963135850667272031e+00 1.884528228892260415e+01
1.098016074346258719e+01 1.309771117987466482e+01 1.844686527583140645e+01
8.571195372753157571e+00 6.715888571805663787e+00 1.874956445767675817e+01
9.304539826779890888e+00 1.368345120665708237e+01 1.838512558349330916e+01
1.015340259212769780e+01 1.069412467662317567e+01 1.790982387151767696e+01
1.054236212333326250e+01 1.442322467321744739e+01 1.734756716741441096e+01
5.053886096280351126e+00 1.095455136875656876e+01 1.976357508397479990e+01
8.489238592559395613e+00 1.127760273269018398e+01 1.784947922477696736e+01
9.346590404946674369e+00 8.335490494666968786e+00 1.738445306752414155e+01
9.997726493554026206e+00 2.466161248160289698e+00 1.653796432564971752e+01
1.077509507764095531e+01 1.228084286420354942e+01 1.605805463188279347e+01
4.224692921053254224e+00 1.237464861652014747e+01 1.909061628029787983e+01
7.681307006517250180e+00 8.915243432959981007e+00 1.732390396966657065e+01
2.119602770926002933e+01 1.088055917810734741e+01 1.044306853915453814e+01
5.440415518793695782e+00 8.895655601833709625e+00 1.824757578866336161e+01
6.393802426456923982e+00 6.976392823253547704e+00 1.769779617615736456e+01
9.112710117797041320e+00 1.286240333639298683e+01 1.599671767740456829e+01
9.962479377371391109e+00 9.908102306810350868e+00 1.552227707240437837e+01
5.547571911056996541e+00 1.122076742352660972e+01 1.729473433403994775e+01
5.904274843286062335e+00 5.479905141072124231e+00 1.693686982886003278e+01
3.721034815642285665e+00 8.815189331094758884e+00 1.786877243198110321e+01
9.219585324344508948e+00 7.483582759907959847e+00 1.507805868094415658e+01
8.299332992949615573e+00 1.049176811044375768e+01 1.546398084762092040e+01
3.824453087177897004e+00 1.115072518945765978e+01 1.693578690883788340e+01
5.926108376409287004e+00 9.231635083569074141e+00 1.577045483657819247e+01
7.627291504156450408e+00 8.190223427657201682e+00 1.484553301009085757e+01
8.977393670074288679e+00 2.399704874009246147e+00 1.413127332841783712e+01
4.133192140707595996e+00 6.814248934867349838e+00 1.639173088959168112e+01
4.204598748397819108e+00 9.120187534282564457e+00 1.544066429636566795e+01
5.070685795793290040e+00 6.952219573217917947e+00 1.492455592237057971e+01
8.702003376757907915e+00 8.333827590381019945e+00 2.409972934804838829e+01
1.355038393643555672e+01 3.279226092688248162e+00 2.278980651552712544e+01
1.486629341804708382e+01 3.229743423000428049e+00 2.504911498821750726e+01
1.371728084722898444e+01 2.410659595027339730e+00 2.689126003007205057e+01
1.381371783016606258e+01 7.211568549662388250e+00 2.685260276277092828e+01
1.445269128077288201e+01 6.757486274118200686e-01 2.849123440480927272e+01
1.472135428445214700e+01 7.847539170483770476e+00 2.901866809309766637e+01
1.556015604051097867e+01 1.302683645026121884e+00 3.059123301815974116e+01
1.559270376195800623e+01 8.361045923358998877e+00 3.067568092555260506e+01
6.425107651676114529e+00 6.625346939804757973e+00 1.333791834844737423e+01
7.846893100696135548e+00 2.804293317748971948e+00 1.195321969962110842e+01
8.725582163476214959e+00 6.340733376682265998e+00 1.127355467155699031e+01
4.861755199100098679e+00 3.309111274631391986e+00 1.265114567909268928e+01
9.151597652021640883e+00 8.477694903932048831e+00 1.017077564208607754e+01
3.391222614305503313e+00 1.542211853391108001e+00 1.169599121778510309e+01
9.248839097965342759e+00 9.749128206902639704e+00 8.736276305679311349e+00
4.672046559827998990e+00 6.358747257231129879e+00 9.788541348946246501e+00
6.138089000986971300e+00 4.360730296532580041e+00 8.662807631265330599e+00
5.108881546467914703e+00 8.534081781842958847e+00 8.665795024835155402e+00
4.694770733317541911e+00 2.630126540903603871e+00 7.731013359032431254e+00
3.063605549762696612e+00 1.659188998134339954e+00 7.395307769610340642e+00
1.646608259848452605e+01 1.802211981991773904e+00 3.221941372174951113e+01
1.661814962496681147e+01 8.964663987930235223e+00 3.283726792757964574e+01
1.748353503543451026e+01 2.482227725487717862e+00 3.436080216388130992e+01
1.596986819345867659e+01 6.363655679703725809e+00 3.687476634952606958e+01
2.024965625282838744e+01 6.445719441369136327e+00 3.484052137015837047e+01
1.438605506950509394e+01 7.757473101871568133e+00 3.815330249100946958e+01
1.576734385251713988e+01 8.742773847347393712e+00 3.759807190990839842e+01
2.219777979995752304e+01 7.905528507586153886e+00 3.444071583103374934e+01
2.086557169348598961e+01 8.840138334336273829e+00 3.517472648799886059e+01
1.471880463754320800e+01 5.277393556668243946e+00 3.870464491053696321e+01
2.249093988894101415e+01 5.424959471971534164e+00 3.501057449460952853e+01
1.633145775853843418e+01 4.531747534951335865e+00 3.852962792525129032e+01
2.136041704959591314e+01 4.627923260623133750e+00 3.613935695677125182e+01
1.566279944726203333e+01 8.225000042929480060e+00 3.929753876531337653e+01
2.226453196186455230e+01 8.350593143676974250e+00 3.615982667657809912e+01
1.600924578441578561e+01 5.663955065846693948e+00 3.986428198558038360e+01
2.256375180464778296e+01 5.788890045240435711e+00 3.674891738316315326e+01
1.771721563400102184e+01 7.329698916469737924e+00 4.007157826279323842e+01
2.159532767250459528e+01 7.404912252221294011e+00 3.822829444515311792e+01
0.000000000000000000e+00 7.686700374369479505e+00 0.000000000000000000e+00
6.438686281173003678e+00 4.964522747214488163e+00 1.126595507661220452e+01
1.797901352484169379e+01 6.312477388251379828e+00 3.557929851068214333e+01
8.572088393994688360e+00 6.906178329908102320e+00 2.102594090931739501e+01
9.997736068248901375e+00 6.858395077191659972e+00 2.354892935419632138e+01
8.608760666674827533e+00 1.042184791895053309e+01 8.433344038997773850e+00
6.397959668546056022e+00 1.062298852517059800e+01 8.175380680174804127e+00
2.510243017917980879e+00 4.348721057198200179e-02 9.904754102671013527e+00
2.683038504934014412e+00 8.765259251323699319e-01 7.838807350332835711e+00
1.768621191559279637e+01 8.531134688612523220e+00 3.505764355229567997e+01
1.827664178680176832e+01 4.094577308953829764e+00 3.610045236500099008e+01
1.146751294935310916e+01 4.294023672555197457e+00 2.102892155617756842e+01
1.506740094979389433e+01 0.000000000000000000e+00 4.270588172630777279e+01
